NAME : gr666.163028.tour
COMMENT : Length = 163028
COMMENT : Found by LKH [Keld Helsgaun] Sat May 25 06:45:04 2013
TYPE : TOUR
DIMENSION : 134
TOUR_SECTION
1
310
309
17
18
235
141
239
243
251
294
300
348
404
408
414
417
491
492
460
515
505
164
161
201
202
203
234
232
233
231
215
212
225
221
218
217
207
194
190
188
184
149
171
169
170
131
130
125
126
118
117
115
116
108
666
649
645
643
642
641
648
647
639
637
636
659
658
657
656
655
654
660
661
663
662
664
665
93
98
97
137
86
82
83
77
76
69
64
56
36
29
26
25
20
9
11
12
5
3
2
479
481
478
477
620
486
623
612
611
610
600
597
592
586
591
584
580
577
573
574
553
556
551
539
537
533
474
467
466
463
438
464
465
-1
EOF
